0 222 
1 225 
2 230 
3 224 
4 223 
5 223 
6 215 
7 218 
8 219 
9 219 
10 217 
11 218 
12 221 
13 222 
14 223 
15 216 
16 217 
17 215 
18 218 
19 214 
20 211 
21 208 
22 207 
23 203 
24 203 
25 201 
26 198 
27 197 
28 196 
29 202 
30 196 
31 198 
32 193 
33 192 
34 186 
35 182 
36 181 
37 176 
38 174 
39 169 
40 165 
41 161 
42 163 
43 160 
44 158 
45 155 
46 155 
47 149 
48 147 
49 150 
50 144 
51 144 
52 143 
53 139 
54 143 
55 139 
56 138 
57 145 
58 141 
59 138 
60 137 
61 137 
62 134 
63 135 
64 134 
65 131 
66 129 
67 128 
68 127 
69 125 
70 122 
71 121 
72 118 
73 116 
74 119 
75 114 
76 115 
77 112 
78 110 
79 102 
80 97 
81 97 
82 91 
83 97 
84 98 
85 98 
86 99 
87 99 
88 98 
89 91 
90 86 
91 82 
92 79 
93 80 
94 78 
95 76 
96 74 
97 71 
98 68 
99 68 
100 71 
101 71 
102 66 
103 65 
104 61 
105 57 
106 57 
107 53 
108 52 
109 49 
110 48 
111 44 
112 45 
113 44 
114 42 
115 42 
116 43 
117 46 
118 46 
119 43 
120 44 
121 41 
122 41 
123 38 
124 35 
125 34 
126 32 
127 35 
128 33 
129 30 
130 30 
131 30 
132 27 
133 27 
134 27 
135 27 
136 23 
137 22 
138 20 
139 21 
140 21 
141 20 
142 17 
143 17 
144 15 
145 12 
146 14 
147 11 
148 8 
149 7 
150 7 
151 9 
152 8 
153 6 
154 5 
155 6 
156 7 
157 6 
158 5 
159 5 
160 3 
161 1 
162 0 
163 0 

